param bias_3 :=
1 -0.06150473
2  0.01604761
3 0.02167743
4 0.03760067
5 0.00393928
6 0.04764786
7 0.02308282
8 0.01263082
9 -0.00369555
10  0.02226072
11 -0.00766753
12  0.00754495
13 -0.00163882
14  0.05274075
15 -0.02989935
16 -0.00499649
;
